p cnf 60 494
1 2 3 0
4 5 6 0
7 8 9 0
10 11 12 0
13 14 15 0
16 17 18 0
19 20 21 0
22 23 24 0
25 26 27 0
28 29 30 0
31 32 33 0
34 35 36 0
37 38 39 0
40 41 42 0
43 44 45 0
46 47 48 0
49 50 51 0
52 53 54 0
55 56 57 0
58 59 60 0
-1 -2 0
-1 -3 0
-2 -3 0
-4 -5 0
-4 -6 0
-5 -6 0
-7 -8 0
-7 -9 0
-8 -9 0
-10 -11 0
-10 -12 0
-11 -12 0
-13 -14 0
-13 -15 0
-14 -15 0
-16 -17 0
-16 -18 0
-17 -18 0
-19 -20 0
-19 -21 0
-20 -21 0
-22 -23 0
-22 -24 0
-23 -24 0
-25 -26 0
-25 -27 0
-26 -27 0
-28 -29 0
-28 -30 0
-29 -30 0
-31 -32 0
-31 -33 0
-32 -33 0
-34 -35 0
-34 -36 0
-35 -36 0
-37 -38 0
-37 -39 0
-38 -39 0
-40 -41 0
-40 -42 0
-41 -42 0
-43 -44 0
-43 -45 0
-44 -45 0
-46 -47 0
-46 -48 0
-47 -48 0
-49 -50 0
-49 -51 0
-50 -51 0
-52 -53 0
-52 -54 0
-53 -54 0
-55 -56 0
-55 -57 0
-56 -57 0
-58 -59 0
-58 -60 0
-59 -60 0
-1 -7 0
-1 -10 0
-1 -19 0
-1 -22 0
-1 -31 0
-1 -40 0
-1 -43 0
-1 -49 0
-1 -52 0
-4 -16 0
-4 -19 0
-4 -22 0
-4 -31 0
-4 -34 0
-4 -40 0
-4 -49 0
-4 -55 0
-7 -1 0
-7 -10 0
-7 -13 0
-7 -37 0
-7 -43 0
-7 -49 0
-7 -52 0
-10 -1 0
-10 -7 0
-10 -19 0
-10 -31 0
-10 -34 0
-10 -43 0
-10 -49 0
-10 -52 0
-13 -7 0
-13 -19 0
-13 -22 0
-13 -28 0
-13 -31 0
-13 -40 0
-13 -43 0
-16 -4 0
-16 -22 0
-16 -31 0
-16 -37 0
-16 -43 0
-16 -49 0
-19 -1 0
-19 -4 0
-19 -10 0
-19 -13 0
-19 -22 0
-19 -25 0
-19 -31 0
-19 -40 0
-22 -1 0
-22 -4 0
-22 -13 0
-22 -16 0
-22 -19 0
-22 -46 0
-25 -19 0
-25 -31 0
-25 -40 0
-25 -43 0
-25 -46 0
-25 -49 0
-25 -52 0
-28 -13 0
-28 -31 0
-28 -34 0
-28 -37 0
-28 -43 0
-28 -46 0
-28 -52 0
-31 -1 0
-31 -4 0
-31 -10 0
-31 -13 0
-31 -16 0
-31 -19 0
-31 -25 0
-31 -28 0
-31 -49 0
-34 -4 0
-34 -10 0
-34 -28 0
-34 -43 0
-34 -46 0
-34 -49 0
-34 -52 0
-37 -7 0
-37 -16 0
-37 -28 0
-37 -40 0
-37 -55 0
-40 -1 0
-40 -4 0
-40 -13 0
-40 -19 0
-40 -25 0
-40 -37 0
-43 -1 0
-43 -7 0
-43 -10 0
-43 -13 0
-43 -16 0
-43 -25 0
-43 -28 0
-46 -13 0
-46 -19 0
-46 -22 0
-46 -25 0
-46 -28 0
-49 -1 0
-49 -4 0
-49 -7 0
-49 -10 0
-49 -16 0
-49 -25 0
-49 -31 0
-52 -1 0
-52 -7 0
-52 -10 0
-52 -16 0
-52 -22 0
-52 -25 0
-52 -28 0
-55 -1 0
-55 -4 0
-55 -7 0
-55 -10 0
-55 -37 0
-55 -40 0
-58 -4 0
-58 -25 0
-58 -28 0
-58 -31 0
-58 -34 0
-58 -37 0
-2 -8 0
-2 -11 0
-2 -20 0
-2 -23 0
-2 -32 0
-2 -41 0
-2 -44 0
-2 -50 0
-2 -53 0
-5 -17 0
-5 -20 0
-5 -23 0
-5 -32 0
-5 -35 0
-5 -41 0
-5 -50 0
-5 -56 0
-8 -2 0
-8 -11 0
-8 -14 0
-8 -38 0
-8 -44 0
-8 -50 0
-8 -53 0
-11 -2 0
-11 -8 0
-11 -20 0
-11 -32 0
-11 -35 0
-11 -44 0
-11 -50 0
-11 -53 0
-14 -8 0
-14 -20 0
-14 -23 0
-14 -29 0
-14 -32 0
-14 -41 0
-14 -44 0
-17 -5 0
-17 -23 0
-17 -32 0
-17 -38 0
-17 -44 0
-17 -50 0
-20 -2 0
-20 -5 0
-20 -11 0
-20 -14 0
-20 -23 0
-20 -26 0
-20 -32 0
-20 -41 0
-23 -2 0
-23 -5 0
-23 -14 0
-23 -17 0
-23 -20 0
-23 -47 0
-26 -20 0
-26 -32 0
-26 -41 0
-26 -44 0
-26 -47 0
-26 -50 0
-26 -53 0
-29 -14 0
-29 -32 0
-29 -35 0
-29 -38 0
-29 -44 0
-29 -47 0
-29 -53 0
-32 -2 0
-32 -5 0
-32 -11 0
-32 -14 0
-32 -17 0
-32 -20 0
-32 -26 0
-32 -29 0
-32 -50 0
-35 -5 0
-35 -11 0
-35 -29 0
-35 -44 0
-35 -47 0
-35 -50 0
-35 -53 0
-38 -8 0
-38 -17 0
-38 -29 0
-38 -41 0
-38 -56 0
-41 -2 0
-41 -5 0
-41 -14 0
-41 -20 0
-41 -26 0
-41 -38 0
-44 -2 0
-44 -8 0
-44 -11 0
-44 -14 0
-44 -17 0
-44 -26 0
-44 -29 0
-47 -14 0
-47 -20 0
-47 -23 0
-47 -26 0
-47 -29 0
-50 -2 0
-50 -5 0
-50 -8 0
-50 -11 0
-50 -17 0
-50 -26 0
-50 -32 0
-53 -2 0
-53 -8 0
-53 -11 0
-53 -17 0
-53 -23 0
-53 -26 0
-53 -29 0
-56 -2 0
-56 -5 0
-56 -8 0
-56 -11 0
-56 -38 0
-56 -41 0
-59 -5 0
-59 -26 0
-59 -29 0
-59 -32 0
-59 -35 0
-59 -38 0
-3 -9 0
-3 -12 0
-3 -21 0
-3 -24 0
-3 -33 0
-3 -42 0
-3 -45 0
-3 -51 0
-3 -54 0
-6 -18 0
-6 -21 0
-6 -24 0
-6 -33 0
-6 -36 0
-6 -42 0
-6 -51 0
-6 -57 0
-9 -3 0
-9 -12 0
-9 -15 0
-9 -39 0
-9 -45 0
-9 -51 0
-9 -54 0
-12 -3 0
-12 -9 0
-12 -21 0
-12 -33 0
-12 -36 0
-12 -45 0
-12 -51 0
-12 -54 0
-15 -9 0
-15 -21 0
-15 -24 0
-15 -30 0
-15 -33 0
-15 -42 0
-15 -45 0
-18 -6 0
-18 -24 0
-18 -33 0
-18 -39 0
-18 -45 0
-18 -51 0
-21 -3 0
-21 -6 0
-21 -12 0
-21 -15 0
-21 -24 0
-21 -27 0
-21 -33 0
-21 -42 0
-24 -3 0
-24 -6 0
-24 -15 0
-24 -18 0
-24 -21 0
-24 -48 0
-27 -21 0
-27 -33 0
-27 -42 0
-27 -45 0
-27 -48 0
-27 -51 0
-27 -54 0
-30 -15 0
-30 -33 0
-30 -36 0
-30 -39 0
-30 -45 0
-30 -48 0
-30 -54 0
-33 -3 0
-33 -6 0
-33 -12 0
-33 -15 0
-33 -18 0
-33 -21 0
-33 -27 0
-33 -30 0
-33 -51 0
-36 -6 0
-36 -12 0
-36 -30 0
-36 -45 0
-36 -48 0
-36 -51 0
-36 -54 0
-39 -9 0
-39 -18 0
-39 -30 0
-39 -42 0
-39 -57 0
-42 -3 0
-42 -6 0
-42 -15 0
-42 -21 0
-42 -27 0
-42 -39 0
-45 -3 0
-45 -9 0
-45 -12 0
-45 -15 0
-45 -18 0
-45 -27 0
-45 -30 0
-48 -15 0
-48 -21 0
-48 -24 0
-48 -27 0
-48 -30 0
-51 -3 0
-51 -6 0
-51 -9 0
-51 -12 0
-51 -18 0
-51 -27 0
-51 -33 0
-54 -3 0
-54 -9 0
-54 -12 0
-54 -18 0
-54 -24 0
-54 -27 0
-54 -30 0
-57 -3 0
-57 -6 0
-57 -9 0
-57 -12 0
-57 -39 0
-57 -42 0
-60 -6 0
-60 -27 0
-60 -30 0
-60 -33 0
-60 -36 0
-60 -39 0
